results_rootrelaxation/bin018_050_036.srr.sol
solution status: optimal solution found
objective value:                                    0
_var1594_                           0.290067208656307 	(obj:0)
_var2246_                          0.0240167883029521 	(obj:0)
_var2331_                           0.155218616838922 	(obj:0)
_var2671_                         0.00784336881062409 	(obj:0)
_var2723_                          0.0682003602170777 	(obj:0)
_var2726_                           0.208352716132984 	(obj:0)
_var2731_                           0.314575105765962 	(obj:0)
_var2742_                          0.0543816812668106 	(obj:0)
_var2744_                           0.046586500040467 	(obj:0)
_var2745_                          0.0114467023199128 	(obj:0)
_var2746_                           0.272398127253464 	(obj:0)
_var2750_                           0.069589176917657 	(obj:0)
_var2751_                           0.077962171581441 	(obj:0)
_var2752_                           0.111473526756437 	(obj:0)
_var2754_                           0.254072668747581 	(obj:0)
_var2758_                           0.277183793366733 	(obj:0)
_var2759_                          0.0396381488337926 	(obj:0)
_var2760_                           0.163812272856785 	(obj:0)
_var2762_                         0.00261645216255912 	(obj:0)
_var2768_                         0.00324243144634284 	(obj:0)
_var2770_                           0.140449738104886 	(obj:0)
_var2776_                          0.0945932804067234 	(obj:0)
_var2784_                           0.176823428878614 	(obj:0)
_var2785_                            0.24833082025536 	(obj:0)
_var2789_                           0.144804244076038 	(obj:0)
_var2796_                           0.126312987873587 	(obj:0)
_var2798_                           0.170876332853116 	(obj:0)
_var2804_                           0.322546238659142 	(obj:0)
_var2806_                           0.199440638696649 	(obj:0)
_var2807_                           0.242685006802269 	(obj:0)
_var2810_                           0.210315940187816 	(obj:0)
_var2811_                          0.0217206260723017 	(obj:0)
_var2813_                           0.116234619801937 	(obj:0)
_var2814_                           0.137366045173352 	(obj:0)
_var2815_                          0.0037119547868659 	(obj:0)
_var2816_                           0.174229206555518 	(obj:0)
_var2817_                          0.0201052067667888 	(obj:0)
_var2818_                           0.110465187412557 	(obj:0)
_var2819_                           0.167042777817771 	(obj:0)
_var2820_                           0.229611412504709 	(obj:0)
_var2822_                          0.0451285627523048 	(obj:0)
_var2823_                           0.158505435458469 	(obj:0)
_var2824_                          0.0164124333386093 	(obj:0)
_var2825_                           0.209002839530244 	(obj:0)
_var2830_                           0.102390759034944 	(obj:0)
_var2832_                           0.110516764205456 	(obj:0)
_var2835_                          0.0206527455674927 	(obj:0)
_var2836_                           0.119050734320223 	(obj:0)
_var2839_                           0.167640836743293 	(obj:0)
_var2842_                          0.0490022132923963 	(obj:0)
_var2844_                          0.0970124805882542 	(obj:0)
_var2848_                           0.103142220446595 	(obj:0)
_var2849_                          0.0667411372688989 	(obj:0)
_var2851_                           0.287468437502905 	(obj:0)
_var2854_                           0.215110510643478 	(obj:0)
_var2855_                           0.175147240407519 	(obj:0)
_var2858_                           0.267153597711124 	(obj:0)
_var2862_                           0.238167759107068 	(obj:0)
_var2863_                         0.00158603040479799 	(obj:0)
_var2866_                           0.189142233334989 	(obj:0)
_var2870_                           0.148294128764175 	(obj:0)
_var2874_                           0.195193056250647 	(obj:0)
_var2877_                          0.0151293473831324 	(obj:0)
_var2880_                           0.325801748535081 	(obj:0)
_var2882_                          0.0145403787640295 	(obj:0)
_var2884_                          0.0688739133371016 	(obj:0)
_var2890_                           0.140624192950749 	(obj:0)
_var2891_                          0.0890286581820343 	(obj:0)
_var2894_                           0.181470937459048 	(obj:0)
_var2895_                           0.197226032583159 	(obj:0)
_var2896_                           0.189742275509185 	(obj:0)
_var2897_                          0.0845033908802624 	(obj:0)
_var2898_                          0.0797602472663551 	(obj:0)
_var2900_                           0.123329169538875 	(obj:0)
_var2902_                           0.213992837302057 	(obj:0)
_var2903_                          0.0549678279788864 	(obj:0)
_var2904_                           0.132910084389948 	(obj:0)
_var2905_                           0.141528146579598 	(obj:0)
_var2906_                          0.0395826903801799 	(obj:0)
_var2907_                           0.159277306263443 	(obj:0)
_var2909_                           0.115259190544925 	(obj:0)
_var2910_                             0.2358702609848 	(obj:0)
_var2912_                          0.0796222315278674 	(obj:0)
_var2913_                           0.159321288786873 	(obj:0)
_var2914_                         0.00677047282321963 	(obj:0)
_var2916_                          0.0723142765175283 	(obj:0)
_var2917_                          0.0237857204461003 	(obj:0)
_var2918_                           0.161193779126112 	(obj:0)
_var2919_                          0.0209650268781631 	(obj:0)
_var2920_                          0.0214755125113019 	(obj:0)
_var2921_                          0.0342368649143689 	(obj:0)
_var2923_                          0.0105972765585269 	(obj:0)
_var2925_                          0.0421979202110785 	(obj:0)
_var2927_                           0.113715509626186 	(obj:0)
_var2928_                           0.164870460439154 	(obj:0)
_var2931_                           0.140508009291328 	(obj:0)
_var2932_                          0.0798466457671699 	(obj:0)
_var2933_                           0.134818701454151 	(obj:0)
_var2934_                          0.0659791443085935 	(obj:0)
_var2935_                           0.144484459196778 	(obj:0)
_var2938_                          0.0438468928891676 	(obj:0)
_var2941_                          0.0563566263590021 	(obj:0)
_var2942_                          0.0382522065300778 	(obj:0)
_var2944_                           0.163710548939895 	(obj:0)
_var2945_                          0.0837679423510099 	(obj:0)
_var2949_                           0.159019943980176 	(obj:0)
_var2950_                          0.0895581526149763 	(obj:0)
_var2951_                          0.0546209111146645 	(obj:0)
_var2954_                          0.0811789398099739 	(obj:0)
_var2956_                           0.258879959429015 	(obj:0)
_var2957_                          0.0842188308834099 	(obj:0)
_var2958_                             0.0396550825551 	(obj:0)
_var2960_                          0.0016765833851454 	(obj:0)
_var2963_                             0.1136008951292 	(obj:0)
_var2965_                           0.124985011763538 	(obj:0)
_var2966_                           0.238844122616346 	(obj:0)
_var2968_                            0.16282405071718 	(obj:0)
_var2969_                          0.0547489075557303 	(obj:0)
_var2973_                         0.00864935501356323 	(obj:0)
_var2975_                          0.0991103142982933 	(obj:0)
_var2976_                           0.132577840595007 	(obj:0)
_var2978_                          0.0360540529862534 	(obj:0)
_var2979_                          0.0372786161869667 	(obj:0)
_var2980_                          0.0165163057281397 	(obj:0)
_var2981_                          0.0159950459045403 	(obj:0)
_var2982_                           0.164014603217488 	(obj:0)
_var2986_                          0.0528206745397194 	(obj:0)
_var2987_                           0.159943960844335 	(obj:0)
_var2988_                           0.158100612074415 	(obj:0)
_var2991_                           0.227457985006337 	(obj:0)
_var2995_                           0.124444214423145 	(obj:0)
_var2996_                           0.190079112038515 	(obj:0)
_var2997_                          0.0435082997893999 	(obj:0)
_var3001_                          0.0679961688575624 	(obj:0)
_var3002_                          0.0284725814252525 	(obj:0)
_var3003_                          0.0290739539230799 	(obj:0)
_var3004_                           0.208456169524945 	(obj:0)
_var3005_                          0.0166793601927887 	(obj:0)
_var3009_                          0.0381344093302353 	(obj:0)
_var3011_                          0.0903895806062936 	(obj:0)
_var3013_                          0.0355241705836688 	(obj:0)
_var3016_                           0.105244233043819 	(obj:0)
_var3017_                          0.0835275191770132 	(obj:0)
_var3018_                          0.0694412739215709 	(obj:0)
_var3021_                          0.0890683611808051 	(obj:0)
_var3024_                          0.0347470890731999 	(obj:0)
_var3028_                          0.0793448336591324 	(obj:0)
_var3030_                          0.0146956201917724 	(obj:0)
_var3031_                          0.0535847039588409 	(obj:0)
_var3032_                         0.00288801563026216 	(obj:0)
_var3035_                          0.0384246549967697 	(obj:0)
_var3040_                          0.0250830936212096 	(obj:0)
