results_rootrelaxation/bin018_050_036.srr.log
SCIP version 8.0.3.5 [precision: 8 byte] [memory: block] [mode: optimized] [LP solver: Soplex 6.0.1.3] [GitHash: 438792519e]
Copyright (c) 2002-2023 Zuse Institute Berlin (ZIB)

External libraries: 
  Readline 8.1         GNU library for command line editing (gnu.org/s/readline)
  Soplex 6.0.1.3       Linear Programming Solver developed at Zuse Institute Berlin (soplex.zib.de) [GitHash: 713be0fe]
  CppAD 20180000.0     Algorithmic Differentiation of C++ algorithms developed by B. Bell (github.com/coin-or/CppAD)
  ZLIB 1.2.11          General purpose compression library by J. Gailly and M. Adler (zlib.net)
  bliss 0.77           Computing Graph Automorphism Groups by T. Junttila and P. Kaski (www.tcs.hut.fi/Software/bliss/)

user parameter file <scip.set> not found - using default parameters

srr/relaxation = TRUE

read problem <instances/bin018_050_036.srr>
============

Original problem: 
original problem has 0 variables (0 bin, 0 int, 0 impl, 0 cont) and 170 constraints

presolving:
presolving (1 rounds: 1 fast, 1 medium, 1 exhaustive):
 0 deleted vars, 0 deleted constraints, 0 added constraints, 0 tightened bounds, 0 added holes, 0 changed sides, 0 changed coefficients
 0 implications, 0 cliques
presolved problem has 0 variables (0 bin, 0 int, 0 impl, 0 cont) and 170 constraints
    170 constraints of type <linear>
Presolving Time: 0.00

 time | node  | left  |LP iter|LP it/n|mem/heur|mdpt |vars |cons |rows |cuts |sepa|confs|strbr|  dualbound   | primalbound  |  gap   | compl. 
  0.0s|     1 |     0 |     1 |     - |   922k |   0 |   1 | 170 | 170 |   0 |  0 |   0 |   0 |      --      |      --      |    Inf | unknown
  0.2s|     1 |     0 |  1042 |     - |  7072k |   0 |1601 | 170 | 170 |   0 |  0 |   0 |   0 |      --      |      --      |    Inf | unknown
r 0.8s|     1 |     0 |  6080 |     - |simplero|   0 |2706 | 170 | 170 |   0 |  0 |   0 |   0 |      --      | 3.370091e+01 |    Inf | unknown
r 0.9s|     1 |     0 |  6198 |     - |simplero|   0 |2723 | 170 | 170 |   0 |  0 |   0 |   0 |      --      | 3.177050e+01 |    Inf | unknown
r 0.9s|     1 |     0 |  6322 |     - |simplero|   0 |2740 | 170 | 170 |   0 |  0 |   0 |   0 |      --      | 2.966231e+01 |    Inf | unknown
r 0.9s|     1 |     0 |  6464 |     - |simplero|   0 |2757 | 170 | 170 |   0 |  0 |   0 |   0 |      --      | 2.692239e+01 |    Inf | unknown
r 0.9s|     1 |     0 |  6637 |     - |simplero|   0 |2774 | 170 | 170 |   0 |  0 |   0 |   0 |      --      | 2.444937e+01 |    Inf | unknown
r 1.0s|     1 |     0 |  6827 |     - |simplero|   0 |2791 | 170 | 170 |   0 |  0 |   0 |   0 |      --      | 2.188611e+01 |    Inf | unknown
r 1.0s|     1 |     0 |  6925 |     - |simplero|   0 |2808 | 170 | 170 |   0 |  0 |   0 |   0 |      --      | 2.044184e+01 |    Inf | unknown
r 1.0s|     1 |     0 |  7002 |     - |simplero|   0 |2808 | 170 | 170 |   0 |  0 |   0 |   0 |      --      | 1.959299e+01 |    Inf | unknown
r 1.0s|     1 |     0 |  7031 |     - |simplero|   0 |2808 | 170 | 170 |   0 |  0 |   0 |   0 |      --      | 1.952413e+01 |    Inf | unknown
r 1.0s|     1 |     0 |  7169 |     - |simplero|   0 |2825 | 170 | 170 |   0 |  0 |   0 |   0 |      --      | 1.771400e+01 |    Inf | unknown
r 1.0s|     1 |     0 |  7228 |     - |simplero|   0 |2825 | 170 | 170 |   0 |  0 |   0 |   0 |      --      | 1.731068e+01 |    Inf | unknown
r 1.0s|     1 |     0 |  7245 |     - |simplero|   0 |2825 | 170 | 170 |   0 |  0 |   0 |   0 |      --      | 1.729520e+01 |    Inf | unknown
r 1.0s|     1 |     0 |  7254 |     - |simplero|   0 |2825 | 170 | 170 |   0 |  0 |   0 |   0 |      --      | 1.729025e+01 |    Inf | unknown
 time | node  | left  |LP iter|LP it/n|mem/heur|mdpt |vars |cons |rows |cuts |sepa|confs|strbr|  dualbound   | primalbound  |  gap   | compl. 
r 1.0s|     1 |     0 |  7354 |     - |simplero|   0 |2842 | 170 | 170 |   0 |  0 |   0 |   0 |      --      | 1.566205e+01 |    Inf | unknown
r 1.0s|     1 |     0 |  7500 |     - |simplero|   0 |2842 | 170 | 170 |   0 |  0 |   0 |   0 |      --      | 1.421235e+01 |    Inf | unknown
r 1.1s|     1 |     0 |  7588 |     - |simplero|   0 |2842 | 170 | 170 |   0 |  0 |   0 |   0 |      --      | 1.377092e+01 |    Inf | unknown
r 1.1s|     1 |     0 |  7611 |     - |simplero|   0 |2842 | 170 | 170 |   0 |  0 |   0 |   0 |      --      | 1.373846e+01 |    Inf | unknown
r 1.1s|     1 |     0 |  7793 |     - |simplero|   0 |2859 | 170 | 170 |   0 |  0 |   0 |   0 |      --      | 1.211585e+01 |    Inf | unknown
r 1.1s|     1 |     0 |  7830 |     - |simplero|   0 |2859 | 170 | 170 |   0 |  0 |   0 |   0 |      --      | 1.193964e+01 |    Inf | unknown
r 1.1s|     1 |     0 |  7849 |     - |simplero|   0 |2859 | 170 | 170 |   0 |  0 |   0 |   0 |      --      | 1.187970e+01 |    Inf | unknown
r 1.1s|     1 |     0 |  7858 |     - |simplero|   0 |2859 | 170 | 170 |   0 |  0 |   0 |   0 |      --      | 1.186950e+01 |    Inf | unknown
r 1.1s|     1 |     0 |  7866 |     - |simplero|   0 |2859 | 170 | 170 |   0 |  0 |   0 |   0 |      --      | 1.186562e+01 |    Inf | unknown
r 1.1s|     1 |     0 |  8012 |     - |simplero|   0 |2876 | 170 | 170 |   0 |  0 |   0 |   0 |      --      | 1.063158e+01 |    Inf | unknown
r 1.1s|     1 |     0 |  8069 |     - |simplero|   0 |2876 | 170 | 170 |   0 |  0 |   0 |   0 |      --      | 1.046019e+01 |    Inf | unknown
r 1.1s|     1 |     0 |  8084 |     - |simplero|   0 |2876 | 170 | 170 |   0 |  0 |   0 |   0 |      --      | 1.042970e+01 |    Inf | unknown
r 1.1s|     1 |     0 |  8085 |     - |simplero|   0 |2876 | 170 | 170 |   0 |  0 |   0 |   0 |      --      | 1.042960e+01 |    Inf | unknown
r 1.2s|     1 |     0 |  8196 |     - |simplero|   0 |2893 | 170 | 170 |   0 |  0 |   0 |   0 |      --      | 9.233800e+00 |    Inf | unknown
r 1.2s|     1 |     0 |  8260 |     - |simplero|   0 |2893 | 170 | 170 |   0 |  0 |   0 |   0 |      --      | 8.919427e+00 |    Inf | unknown
 time | node  | left  |LP iter|LP it/n|mem/heur|mdpt |vars |cons |rows |cuts |sepa|confs|strbr|  dualbound   | primalbound  |  gap   | compl. 
r 1.2s|     1 |     0 |  8274 |     - |simplero|   0 |2893 | 170 | 170 |   0 |  0 |   0 |   0 |      --      | 8.902452e+00 |    Inf | unknown
r 1.2s|     1 |     0 |  8277 |     - |simplero|   0 |2893 | 170 | 170 |   0 |  0 |   0 |   0 |      --      | 8.902316e+00 |    Inf | unknown
r 1.2s|     1 |     0 |  8395 |     - |simplero|   0 |2910 | 170 | 170 |   0 |  0 |   0 |   0 |      --      | 7.058501e+00 |    Inf | unknown
r 1.2s|     1 |     0 |  8467 |     - |simplero|   0 |2910 | 170 | 170 |   0 |  0 |   0 |   0 |      --      | 6.743016e+00 |    Inf | unknown
r 1.2s|     1 |     0 |  8498 |     - |simplero|   0 |2910 | 170 | 170 |   0 |  0 |   0 |   0 |      --      | 6.685203e+00 |    Inf | unknown
  1.2s|     1 |     0 |  8510 |     - |    14M |   0 |2910 | 170 | 170 |   0 |  0 |   0 |   0 |      --      | 6.685203e+00 |    Inf | unknown
r 1.2s|     1 |     0 |  8510 |     - |simplero|   0 |2910 | 170 | 170 |   0 |  0 |   0 |   0 |      --      | 6.680172e+00 |    Inf | unknown
r 1.2s|     1 |     0 |  8511 |     - |simplero|   0 |2910 | 170 | 170 |   0 |  0 |   0 |   0 |      --      | 6.680147e+00 |    Inf | unknown
r 1.2s|     1 |     0 |  8662 |     - |simplero|   0 |2927 | 170 | 170 |   0 |  0 |   0 |   0 |      --      | 4.952782e+00 |    Inf | unknown
r 1.2s|     1 |     0 |  8688 |     - |simplero|   0 |2927 | 170 | 170 |   0 |  0 |   0 |   0 |      --      | 4.924775e+00 |    Inf | unknown
r 1.2s|     1 |     0 |  8692 |     - |simplero|   0 |2927 | 170 | 170 |   0 |  0 |   0 |   0 |      --      | 4.922988e+00 |    Inf | unknown
r 1.3s|     1 |     0 |  8696 |     - |simplero|   0 |2927 | 170 | 170 |   0 |  0 |   0 |   0 |      --      | 4.922531e+00 |    Inf | unknown
r 1.3s|     1 |     0 |  8800 |     - |simplero|   0 |2944 | 170 | 170 |   0 |  0 |   0 |   0 |      --      | 3.954831e+00 |    Inf | unknown
r 1.3s|     1 |     0 |  8864 |     - |simplero|   0 |2944 | 170 | 170 |   0 |  0 |   0 |   0 |      --      | 3.833828e+00 |    Inf | unknown
r 1.3s|     1 |     0 |  8890 |     - |simplero|   0 |2944 | 170 | 170 |   0 |  0 |   0 |   0 |      --      | 3.809950e+00 |    Inf | unknown
 time | node  | left  |LP iter|LP it/n|mem/heur|mdpt |vars |cons |rows |cuts |sepa|confs|strbr|  dualbound   | primalbound  |  gap   | compl. 
r 1.3s|     1 |     0 |  8994 |     - |simplero|   0 |2961 | 170 | 170 |   0 |  0 |   0 |   0 |      --      | 3.188892e+00 |    Inf | unknown
r 1.3s|     1 |     0 |  9042 |     - |simplero|   0 |2961 | 170 | 170 |   0 |  0 |   0 |   0 |      --      | 3.064488e+00 |    Inf | unknown
r 1.3s|     1 |     0 |  9058 |     - |simplero|   0 |2961 | 170 | 170 |   0 |  0 |   0 |   0 |      --      | 3.051731e+00 |    Inf | unknown
r 1.3s|     1 |     0 |  9157 |     - |simplero|   0 |2978 | 170 | 170 |   0 |  0 |   0 |   0 |      --      | 2.283751e+00 |    Inf | unknown
r 1.3s|     1 |     0 |  9208 |     - |simplero|   0 |2978 | 170 | 170 |   0 |  0 |   0 |   0 |      --      | 2.038532e+00 |    Inf | unknown
r 1.3s|     1 |     0 |  9335 |     - |simplero|   0 |2995 | 170 | 170 |   0 |  0 |   0 |   0 |      --      | 1.145110e+00 |    Inf | unknown
r 1.4s|     1 |     0 |  9351 |     - |simplero|   0 |2995 | 170 | 170 |   0 |  0 |   0 |   0 |      --      | 1.131697e+00 |    Inf | unknown
r 1.4s|     1 |     0 |  9354 |     - |simplero|   0 |2995 | 170 | 170 |   0 |  0 |   0 |   0 |      --      | 1.131323e+00 |    Inf | unknown
r 1.4s|     1 |     0 |  9453 |     - |simplero|   0 |3012 | 170 | 170 |   0 |  0 |   0 |   0 |      --      | 6.246189e-01 |    Inf | unknown
r 1.4s|     1 |     0 |  9459 |     - |simplero|   0 |3012 | 170 | 170 |   0 |  0 |   0 |   0 |      --      | 6.179926e-01 |    Inf | unknown
r 1.4s|     1 |     0 |  9531 |     - |simplero|   0 |3029 | 170 | 170 |   0 |  0 |   0 |   0 |      --      | 2.318624e-01 |    Inf | unknown
r 1.4s|     1 |     0 |  9559 |     - |simplero|   0 |3029 | 170 | 170 |   0 |  0 |   0 |   0 |      --      | 1.802351e-01 |    Inf | unknown
r 1.4s|     1 |     0 |  9583 |     - |simplero|   0 |3046 | 170 | 170 |   0 |  0 |   0 |   0 |      --      | 0.000000e+00 |    Inf | unknown
  1.4s|     1 |     0 |  9583 |     - |    15M |   0 |3046 | 170 | 170 |   0 |  0 |   0 |   0 | 0.000000e+00 | 0.000000e+00 |   0.00%| unknown
  1.4s|     1 |     0 |  9583 |     - |    15M |   0 |3046 | 170 | 170 |   0 |  0 |   0 |   0 | 0.000000e+00 | 0.000000e+00 |   0.00%| unknown

SCIP Status        : problem is solved [optimal solution found]
Solving Time (sec) : 1.40
Solving Nodes      : 1
Primal Bound       : +0.00000000000000e+00 (55 solutions)
Dual Bound         : +0.00000000000000e+00
Gap                : 0.00 %

written transformed problem to file <results_rootrelaxation/bin018_050_036.srr.lp>
written transformed problem to file <results_rootrelaxation/bin018_050_036.srr.cip>

written solution information to file <results_rootrelaxation/bin018_050_036.srr.sol>



